# Objective value = 7
y_0_DG_LG 0
y_1_DG_LG 0
y_2_DG_LG 0
y_3_DG_LG 0
y_4_DG_LG 0
y_5_DG_LG 0
y_5_DG_DM 0
y_5_LG_DM 0
y_6_DG_LG 0
y_6_DG_DM 0
y_6_LG_DM 0
y_7_DG_LG 0
y_7_DG_DM 0
y_7_DG_EP 0
y_7_DG_MP 0
y_7_LG_DM 0
y_7_LG_EP 0
y_7_LG_MP 0
y_7_DM_EP 0
y_7_DM_MP 0
y_7_EP_MP 0
y_8_DG_LG 0
y_8_DG_DM 0
y_8_DG_EP 0
y_8_DG_MP 0
y_8_LG_DM 0
y_8_LG_EP 0
y_8_LG_MP 0
y_8_DM_EP 0
y_8_DM_MP 0
y_8_EP_MP 0
y_9_DG_LG 0
y_9_DG_DM 0
y_9_DG_EP 0
y_9_DG_MP 0
y_9_LG_DM 0
y_9_LG_EP 0
y_9_LG_MP 0
y_9_DM_EP 0
y_9_DM_MP 0
y_9_EP_MP 0
y_10_DG_LG 0
y_10_DG_DM 0
y_10_DG_EP 0
y_10_DG_MP 0
y_10_LG_DM 0
y_10_LG_EP 0
y_10_LG_MP 0
y_10_DM_EP 0
y_10_DM_MP 0
y_10_EP_MP 0
y_11_DG_LG 0
y_11_DG_DM 0
y_11_DG_EP 0
y_11_DG_MP 0
y_11_DG_BF 0
y_11_LG_DM 0
y_11_LG_EP 0
y_11_LG_MP 0
y_11_LG_BF 0
y_11_DM_EP 0
y_11_DM_MP 0
y_11_DM_BF 0
y_11_EP_MP 0
y_11_EP_BF 0
y_11_MP_BF 0
y_12_DG_LG 0
y_12_DG_DM 0
y_12_DG_EP 0
y_12_DG_MP 0
y_12_DG_BF 0
y_12_LG_DM 0
y_12_LG_EP 0
y_12_LG_MP 0
y_12_LG_BF 0
y_12_DM_EP 0
y_12_DM_MP 0
y_12_DM_BF 0
y_12_EP_MP 0
y_12_EP_BF 0
y_12_MP_BF 0
y_13_DG_LG 0
y_13_DG_DM 1
y_13_DG_EP 0
y_13_DG_MP 0
y_13_DG_BF 0
y_13_LG_DM 0
y_13_LG_EP 0
y_13_LG_MP 0
y_13_LG_BF 0
y_13_DM_EP 0
y_13_DM_MP 0
y_13_DM_BF 0
y_13_EP_MP 0
y_13_EP_BF 0
y_13_MP_BF 0
y_14_DG_LG 0
y_14_DG_DM 0
y_14_DG_EP 0
y_14_DG_MP 0
y_14_DG_BF 0
y_14_DG_BU 0
y_14_LG_DM 0
y_14_LG_EP 0
y_14_LG_MP 0
y_14_LG_BF 0
y_14_LG_BU 0
y_14_DM_EP 0
y_14_DM_MP 0
y_14_DM_BF 0
y_14_DM_BU 0
y_14_EP_MP 0
y_14_EP_BF 0
y_14_EP_BU 0
y_14_MP_BF 0
y_14_MP_BU 0
y_14_BF_BU 0
y_15_DG_LG 0
y_15_DG_DM 0
y_15_DG_EP 0
y_15_DG_MP 0
y_15_DG_BF 0
y_15_DG_BU 0
y_15_LG_DM 0
y_15_LG_EP 0
y_15_LG_MP 0
y_15_LG_BF 0
y_15_LG_BU 0
y_15_DM_EP 0
y_15_DM_MP 0
y_15_DM_BF 0
y_15_DM_BU 0
y_15_EP_MP 0
y_15_EP_BF 0
y_15_EP_BU 0
y_15_MP_BF 0
y_15_MP_BU 0
y_15_BF_BU 0
y_16_DG_LG 0
y_16_DG_DM 0
y_16_DG_EP 0
y_16_DG_MP 0
y_16_DG_BF 0
y_16_DG_BU 0
y_16_LG_DM 0
y_16_LG_EP 0
y_16_LG_MP 0
y_16_LG_BF 0
y_16_LG_BU 0
y_16_DM_EP 0
y_16_DM_MP 0
y_16_DM_BF 0
y_16_DM_BU 0
y_16_EP_MP 0
y_16_EP_BF 0
y_16_EP_BU 0
y_16_MP_BF 0
y_16_MP_BU 0
y_16_BF_BU 0
y_17_DG_LG 0
y_17_DG_DM 0
y_17_DG_EP 0
y_17_DG_MP 0
y_17_DG_BF 0
y_17_DG_BU 0
y_17_LG_DM 0
y_17_LG_EP 0
y_17_LG_MP 0
y_17_LG_BF 0
y_17_LG_BU 0
y_17_DM_EP 0
y_17_DM_MP 0
y_17_DM_BF 0
y_17_DM_BU 0
y_17_EP_MP 0
y_17_EP_BF 0
y_17_EP_BU 0
y_17_MP_BF 0
y_17_MP_BU 0
y_17_BF_BU 0
y_18_DG_LG 0
y_18_DG_DM 0
y_18_DG_EP 0
y_18_DG_MP 0
y_18_DG_BF 0
y_18_DG_BU 0
y_18_LG_DM 0
y_18_LG_EP 0
y_18_LG_MP 0
y_18_LG_BF 0
y_18_LG_BU 0
y_18_DM_EP 0
y_18_DM_MP 0
y_18_DM_BF 0
y_18_DM_BU 0
y_18_EP_MP 1
y_18_EP_BF 0
y_18_EP_BU 0
y_18_MP_BF 0
y_18_MP_BU 0
y_18_BF_BU 0
y_19_DG_LG 0
y_19_DG_DM 0
y_19_DG_EP 0
y_19_DG_MP 0
y_19_DG_BF 0
y_19_DG_BU 0
y_19_DG_KM 0
y_19_LG_DM 0
y_19_LG_EP 0
y_19_LG_MP 0
y_19_LG_BF 0
y_19_LG_BU 0
y_19_LG_KM 0
y_19_DM_EP 0
y_19_DM_MP 0
y_19_DM_BF 0
y_19_DM_BU 0
y_19_DM_KM 0
y_19_EP_MP 0
y_19_EP_BF 0
y_19_EP_BU 0
y_19_EP_KM 0
y_19_MP_BF 0
y_19_MP_BU 0
y_19_MP_KM 0
y_19_BF_BU 0
y_19_BF_KM 0
y_19_BU_KM 0
y_20_DG_LG 0
y_20_DG_DM 0
y_20_DG_EP 0
y_20_DG_MP 0
y_20_DG_BF 0
y_20_DG_BU 0
y_20_DG_KM 0
y_20_LG_DM 0
y_20_LG_EP 0
y_20_LG_MP 0
y_20_LG_BF 0
y_20_LG_BU 0
y_20_LG_KM 0
y_20_DM_EP 0
y_20_DM_MP 0
y_20_DM_BF 0
y_20_DM_BU 0
y_20_DM_KM 0
y_20_EP_MP 0
y_20_EP_BF 0
y_20_EP_BU 0
y_20_EP_KM 0
y_20_MP_BF 0
y_20_MP_BU 0
y_20_MP_KM 0
y_20_BF_BU 0
y_20_BF_KM 0
y_20_BU_KM 0
y_21_DG_LG 0
y_21_DG_DM 0
y_21_DG_EP 0
y_21_DG_MP 0
y_21_DG_BF 0
y_21_DG_BU 0
y_21_DG_KM 0
y_21_LG_DM 0
y_21_LG_EP 0
y_21_LG_MP 0
y_21_LG_BF 0
y_21_LG_BU 0
y_21_LG_KM 0
y_21_DM_EP 0
y_21_DM_MP 0
y_21_DM_BF 0
y_21_DM_BU 0
y_21_DM_KM 0
y_21_EP_MP 0
y_21_EP_BF 0
y_21_EP_BU 0
y_21_EP_KM 0
y_21_MP_BF 0
y_21_MP_BU 0
y_21_MP_KM 0
y_21_BF_BU 0
y_21_BF_KM 0
y_21_BU_KM 0
y_22_DG_LG 0
y_22_DG_DM 0
y_22_DG_MP 0
y_22_DG_BF 0
y_22_DG_BU 0
y_22_DG_KM 0
y_22_LG_DM 0
y_22_LG_MP 0
y_22_LG_BF 0
y_22_LG_BU 0
y_22_LG_KM 0
y_22_DM_MP 0
y_22_DM_BF 0
y_22_DM_BU 0
y_22_DM_KM 0
y_22_MP_BF 0
y_22_MP_BU 0
y_22_MP_KM 0
y_22_BF_BU 0
y_22_BF_KM 0
y_22_BU_KM 0
y_23_DG_LG 0
y_23_DG_DM 0
y_23_DG_BF 0
y_23_DG_BU 0
y_23_DG_KM 0
y_23_DG_KS 0
y_23_LG_DM 0
y_23_LG_BF 0
y_23_LG_BU 0
y_23_LG_KM 0
y_23_LG_KS 0
y_23_DM_BF 0
y_23_DM_BU 0
y_23_DM_KM 0
y_23_DM_KS 0
y_23_BF_BU 0
y_23_BF_KM 0
y_23_BF_KS 0
y_23_BU_KM 0
y_23_BU_KS 0
y_23_KM_KS 0
y_24_DG_LG 0
y_24_DG_DM 0
y_24_DG_BF 0
y_24_DG_BU 0
y_24_DG_KM 0
y_24_DG_KS 0
y_24_LG_DM 0
y_24_LG_BF 0
y_24_LG_BU 0
y_24_LG_KM 0
y_24_LG_KS 0
y_24_DM_BF 0
y_24_DM_BU 0
y_24_DM_KM 0
y_24_DM_KS 0
y_24_BF_BU 0
y_24_BF_KM 0
y_24_BF_KS 0
y_24_BU_KM 0
y_24_BU_KS 0
y_24_KM_KS 0
y_25_DG_LG 0
y_25_DG_DM 0
y_25_DG_BF 0
y_25_DG_BU 0
y_25_DG_KM 0
y_25_DG_KS 0
y_25_LG_DM 0
y_25_LG_BF 0
y_25_LG_BU 0
y_25_LG_KM 0
y_25_LG_KS 0
y_25_DM_BF 0
y_25_DM_BU 0
y_25_DM_KM 0
y_25_DM_KS 0
y_25_BF_BU 0
y_25_BF_KM 0
y_25_BF_KS 0
y_25_BU_KM 0
y_25_BU_KS 0
y_25_KM_KS 0
y_26_DG_LG 0
y_26_DG_DM 0
y_26_DG_BU 0
y_26_DG_KM 0
y_26_DG_KS 0
y_26_LG_DM 0
y_26_LG_BU 0
y_26_LG_KM 0
y_26_LG_KS 0
y_26_DM_BU 0
y_26_DM_KM 0
y_26_DM_KS 0
y_26_BU_KM 0
y_26_BU_KS 0
y_26_KM_KS 0
y_27_DG_LG 0
y_27_DG_DM 0
y_27_DG_BU 0
y_27_DG_KM 0
y_27_DG_KS 0
y_27_LG_DM 0
y_27_LG_BU 0
y_27_LG_KM 0
y_27_LG_KS 0
y_27_DM_BU 0
y_27_DM_KM 0
y_27_DM_KS 0
y_27_BU_KM 0
y_27_BU_KS 0
y_27_KM_KS 0
y_28_DG_LG 0
y_28_DG_DM 0
y_28_DG_BU 0
y_28_DG_KM 0
y_28_DG_KS 0
y_28_LG_DM 0
y_28_LG_BU 0
y_28_LG_KM 0
y_28_LG_KS 0
y_28_DM_BU 0
y_28_DM_KM 0
y_28_DM_KS 0
y_28_BU_KM 0
y_28_BU_KS 0
y_28_KM_KS 0
y_29_DG_LG 0
y_29_DG_DM 0
y_29_DG_BU 0
y_29_DG_KM 0
y_29_DG_KS 0
y_29_LG_DM 0
y_29_LG_BU 0
y_29_LG_KM 0
y_29_LG_KS 0
y_29_DM_BU 0
y_29_DM_KM 0
y_29_DM_KS 0
y_29_BU_KM 0
y_29_BU_KS 0
y_29_KM_KS 0
y_30_DG_LG 0
y_30_DG_DM 0
y_30_DG_BU 0
y_30_DG_KM 0
y_30_DG_KS 0
y_30_LG_DM 0
y_30_LG_BU 0
y_30_LG_KM 0
y_30_LG_KS 0
y_30_DM_BU 0
y_30_DM_KM 0
y_30_DM_KS 0
y_30_BU_KM 0
y_30_BU_KS 1
y_30_KM_KS 0
y_31_DG_LG 0
y_31_DG_DM 0
y_31_DG_BU 0
y_31_DG_KM 0
y_31_DG_KS 0
y_31_LG_DM 0
y_31_LG_BU 0
y_31_LG_KM 0
y_31_LG_KS 0
y_31_DM_BU 0
y_31_DM_KM 0
y_31_DM_KS 0
y_31_BU_KM 0
y_31_BU_KS 0
y_31_KM_KS 0
y_32_DG_LG 0
y_32_DG_DM 0
y_32_DG_BU 0
y_32_DG_KM 0
y_32_DG_KS 0
y_32_LG_DM 0
y_32_LG_BU 0
y_32_LG_KM 0
y_32_LG_KS 0
y_32_DM_BU 0
y_32_DM_KM 0
y_32_DM_KS 0
y_32_BU_KM 0
y_32_BU_KS 0
y_32_KM_KS 0
y_33_DG_LG 0
y_33_DG_DM 0
y_33_DG_BU 0
y_33_DG_KM 0
y_33_DG_KS 0
y_33_LG_DM 0
y_33_LG_BU 0
y_33_LG_KM 0
y_33_LG_KS 0
y_33_DM_BU 0
y_33_DM_KM 0
y_33_DM_KS 0
y_33_BU_KM 0
y_33_BU_KS 0
y_33_KM_KS 0
y_34_DG_LG 0
y_34_DG_DM 0
y_34_DG_BU 0
y_34_DG_KM 0
y_34_DG_KS 0
y_34_LG_DM 0
y_34_LG_BU 0
y_34_LG_KM 0
y_34_LG_KS 0
y_34_DM_BU 0
y_34_DM_KM 0
y_34_DM_KS 0
y_34_BU_KM 0
y_34_BU_KS 0
y_34_KM_KS 0
y_35_DG_LG 0
y_35_DG_DM 0
y_35_DG_BU 0
y_35_DG_KM 0
y_35_DG_KS 0
y_35_LG_DM 0
y_35_LG_BU 1
y_35_LG_KM 1
y_35_LG_KS 0
y_35_DM_BU 0
y_35_DM_KM 0
y_35_DM_KS 0
y_35_BU_KM 1
y_35_BU_KS 0
y_35_KM_KS 1
y_36_DG_LG 0
y_36_DG_DM 0
y_36_DG_BU 0
y_36_DG_KS 0
y_36_LG_DM 0
y_36_LG_BU 0
y_36_LG_KS 0
y_36_DM_BU 0
y_36_DM_KS 0
y_36_BU_KS 0
y_37_LG_DM 0
y_37_LG_KS 0
y_37_DM_KS 0
y_38_LG_DM 0
y_38_LG_KS 0
y_38_DM_KS 0
y_39_LG_KS 0
x_0_DG_LG 1
x_1_DG_LG 1
x_2_DG_LG 1
x_3_DG_LG 1
x_4_DG_LG 1
x_5_DG_LG 1
x_6_DG_LG 1
x_5_DG_DM 0
x_6_DG_DM 0
x_5_LG_DM 0
x_6_LG_DM 0
x_7_DG_LG 1
x_7_DG_DM 0
x_7_LG_DM 0
x_8_DG_LG 1
x_8_DG_DM 0
x_7_DG_EP 1
x_8_DG_EP 1
x_7_DG_MP 1
x_8_DG_MP 1
x_8_LG_DM 0
x_7_LG_EP 1
x_8_LG_EP 1
x_7_LG_MP 1
x_8_LG_MP 1
x_7_DM_EP 1
x_8_DM_EP 1
x_7_DM_MP 1
x_8_DM_MP 1
x_7_EP_MP 1
x_8_EP_MP 1
x_9_DG_LG 1
x_9_DG_DM 0
x_9_DG_EP 1
x_9_DG_MP 1
x_9_LG_DM 0
x_9_LG_EP 1
x_9_LG_MP 1
x_9_DM_EP 1
x_9_DM_MP 1
x_9_EP_MP 1
x_10_DG_LG 1
x_10_DG_DM 0
x_10_DG_EP 1
x_10_DG_MP 1
x_10_LG_DM 0
x_10_LG_EP 1
x_10_LG_MP 1
x_10_DM_EP 1
x_10_DM_MP 1
x_10_EP_MP 1
x_11_DG_LG 1
x_11_DG_DM 0
x_11_DG_EP 1
x_11_DG_MP 1
x_11_LG_DM 0
x_11_LG_EP 1
x_11_LG_MP 1
x_11_DM_EP 1
x_11_DM_MP 1
x_11_EP_MP 1
x_12_DG_LG 1
x_12_DG_DM 0
x_12_DG_EP 1
x_12_DG_MP 1
x_11_DG_BF 1
x_12_DG_BF 1
x_12_LG_DM 0
x_12_LG_EP 1
x_12_LG_MP 1
x_11_LG_BF 1
x_12_LG_BF 1
x_12_DM_EP 1
x_12_DM_MP 1
x_11_DM_BF 1
x_12_DM_BF 1
x_12_EP_MP 1
x_11_EP_BF 1
x_12_EP_BF 1
x_11_MP_BF 1
x_12_MP_BF 1
x_13_DG_LG 1
x_13_DG_DM 0
x_13_DG_EP 1
x_13_DG_MP 1
x_13_DG_BF 1
x_13_LG_DM 0
x_13_LG_EP 1
x_13_LG_MP 1
x_13_LG_BF 1
x_13_DM_EP 1
x_13_DM_MP 1
x_13_DM_BF 1
x_13_EP_MP 1
x_13_EP_BF 1
x_13_MP_BF 1
x_14_DG_LG 1
x_14_DG_DM 1
x_14_DG_EP 1
x_14_DG_MP 1
x_14_DG_BF 1
x_14_LG_DM 0
x_14_LG_EP 1
x_14_LG_MP 1
x_14_LG_BF 1
x_14_DM_EP 1
x_14_DM_MP 1
x_14_DM_BF 1
x_14_EP_MP 1
x_14_EP_BF 1
x_14_MP_BF 1
x_15_DG_LG 1
x_15_DG_DM 1
x_15_DG_EP 1
x_15_DG_MP 1
x_15_DG_BF 1
x_14_DG_BU 1
x_15_DG_BU 1
x_15_LG_DM 0
x_15_LG_EP 1
x_15_LG_MP 1
x_15_LG_BF 1
x_14_LG_BU 1
x_15_LG_BU 1
x_15_DM_EP 1
x_15_DM_MP 1
x_15_DM_BF 1
x_14_DM_BU 1
x_15_DM_BU 1
x_15_EP_MP 1
x_15_EP_BF 1
x_14_EP_BU 1
x_15_EP_BU 1
x_15_MP_BF 1
x_14_MP_BU 1
x_15_MP_BU 1
x_14_BF_BU 1
x_15_BF_BU 1
x_16_DG_LG 1
x_16_DG_DM 1
x_16_DG_EP 1
x_16_DG_MP 1
x_16_DG_BF 1
x_16_DG_BU 1
x_16_LG_DM 0
x_16_LG_EP 1
x_16_LG_MP 1
x_16_LG_BF 1
x_16_LG_BU 1
x_16_DM_EP 1
x_16_DM_MP 1
x_16_DM_BF 1
x_16_DM_BU 1
x_16_EP_MP 1
x_16_EP_BF 1
x_16_EP_BU 1
x_16_MP_BF 1
x_16_MP_BU 1
x_16_BF_BU 1
x_17_DG_LG 1
x_17_DG_DM 1
x_17_DG_EP 1
x_17_DG_MP 1
x_17_DG_BF 1
x_17_DG_BU 1
x_17_LG_DM 0
x_17_LG_EP 1
x_17_LG_MP 1
x_17_LG_BF 1
x_17_LG_BU 1
x_17_DM_EP 1
x_17_DM_MP 1
x_17_DM_BF 1
x_17_DM_BU 1
x_17_EP_MP 1
x_17_EP_BF 1
x_17_EP_BU 1
x_17_MP_BF 1
x_17_MP_BU 1
x_17_BF_BU 1
x_18_DG_LG 1
x_18_DG_DM 1
x_18_DG_EP 1
x_18_DG_MP 1
x_18_DG_BF 1
x_18_DG_BU 1
x_18_LG_DM 0
x_18_LG_EP 1
x_18_LG_MP 1
x_18_LG_BF 1
x_18_LG_BU 1
x_18_DM_EP 1
x_18_DM_MP 1
x_18_DM_BF 1
x_18_DM_BU 1
x_18_EP_MP 1
x_18_EP_BF 1
x_18_EP_BU 1
x_18_MP_BF 1
x_18_MP_BU 1
x_18_BF_BU 1
x_19_DG_LG 1
x_19_DG_DM 1
x_19_DG_EP 1
x_19_DG_MP 1
x_19_DG_BF 1
x_19_DG_BU 1
x_19_LG_DM 0
x_19_LG_EP 1
x_19_LG_MP 1
x_19_LG_BF 1
x_19_LG_BU 1
x_19_DM_EP 1
x_19_DM_MP 1
x_19_DM_BF 1
x_19_DM_BU 1
x_19_EP_MP 0
x_19_EP_BF 1
x_19_EP_BU 1
x_19_MP_BF 1
x_19_MP_BU 1
x_19_BF_BU 1
x_20_DG_LG 1
x_20_DG_DM 1
x_20_DG_EP 1
x_20_DG_MP 1
x_20_DG_BF 1
x_20_DG_BU 1
x_19_DG_KM 1
x_20_DG_KM 1
x_20_LG_DM 0
x_20_LG_EP 1
x_20_LG_MP 1
x_20_LG_BF 1
x_20_LG_BU 1
x_19_LG_KM 1
x_20_LG_KM 1
x_20_DM_EP 1
x_20_DM_MP 1
x_20_DM_BF 1
x_20_DM_BU 1
x_19_DM_KM 1
x_20_DM_KM 1
x_20_EP_MP 0
x_20_EP_BF 1
x_20_EP_BU 1
x_19_EP_KM 1
x_20_EP_KM 1
x_20_MP_BF 1
x_20_MP_BU 1
x_19_MP_KM 1
x_20_MP_KM 1
x_20_BF_BU 1
x_19_BF_KM 1
x_20_BF_KM 1
x_19_BU_KM 1
x_20_BU_KM 1
x_21_DG_LG 1
x_21_DG_DM 1
x_21_DG_EP 1
x_21_DG_MP 1
x_21_DG_BF 1
x_21_DG_BU 1
x_21_DG_KM 1
x_21_LG_DM 0
x_21_LG_EP 1
x_21_LG_MP 1
x_21_LG_BF 1
x_21_LG_BU 1
x_21_LG_KM 1
x_21_DM_EP 1
x_21_DM_MP 1
x_21_DM_BF 1
x_21_DM_BU 1
x_21_DM_KM 1
x_21_EP_MP 0
x_21_EP_BF 1
x_21_EP_BU 1
x_21_EP_KM 1
x_21_MP_BF 1
x_21_MP_BU 1
x_21_MP_KM 1
x_21_BF_BU 1
x_21_BF_KM 1
x_21_BU_KM 1
x_22_DG_LG 1
x_22_DG_DM 1
x_22_DG_EP 1
x_22_DG_MP 1
x_22_DG_BF 1
x_22_DG_BU 1
x_22_DG_KM 1
x_22_LG_DM 0
x_22_LG_EP 1
x_22_LG_MP 1
x_22_LG_BF 1
x_22_LG_BU 1
x_22_LG_KM 1
x_22_DM_EP 1
x_22_DM_MP 1
x_22_DM_BF 1
x_22_DM_BU 1
x_22_DM_KM 1
x_22_EP_MP 0
x_22_EP_BF 1
x_22_EP_BU 1
x_22_EP_KM 1
x_22_MP_BF 1
x_22_MP_BU 1
x_22_MP_KM 1
x_22_BF_BU 1
x_22_BF_KM 1
x_22_BU_KM 1
x_23_DG_LG 1
x_23_DG_DM 1
x_23_DG_MP 1
x_23_DG_BF 1
x_23_DG_BU 1
x_23_DG_KM 1
x_23_LG_DM 0
x_23_LG_MP 1
x_23_LG_BF 1
x_23_LG_BU 1
x_23_LG_KM 1
x_23_DM_MP 1
x_23_DM_BF 1
x_23_DM_BU 1
x_23_DM_KM 1
x_23_MP_BF 1
x_23_MP_BU 1
x_23_MP_KM 1
x_23_BF_BU 1
x_23_BF_KM 1
x_23_BU_KM 1
x_24_DG_LG 1
x_24_DG_DM 1
x_24_DG_BF 1
x_24_DG_BU 1
x_24_DG_KM 1
x_23_DG_KS 1
x_24_DG_KS 1
x_24_LG_DM 0
x_24_LG_BF 1
x_24_LG_BU 1
x_24_LG_KM 1
x_23_LG_KS 1
x_24_LG_KS 1
x_24_DM_BF 1
x_24_DM_BU 1
x_24_DM_KM 1
x_23_DM_KS 1
x_24_DM_KS 1
x_24_BF_BU 1
x_24_BF_KM 1
x_23_BF_KS 0
x_24_BF_KS 0
x_24_BU_KM 1
x_23_BU_KS 0
x_24_BU_KS 0
x_23_KM_KS 0
x_24_KM_KS 0
x_25_DG_LG 1
x_25_DG_DM 1
x_25_DG_BF 1
x_25_DG_BU 1
x_25_DG_KM 1
x_25_DG_KS 1
x_25_LG_DM 0
x_25_LG_BF 1
x_25_LG_BU 1
x_25_LG_KM 1
x_25_LG_KS 1
x_25_DM_BF 1
x_25_DM_BU 1
x_25_DM_KM 1
x_25_DM_KS 1
x_25_BF_BU 1
x_25_BF_KM 1
x_25_BF_KS 0
x_25_BU_KM 1
x_25_BU_KS 0
x_25_KM_KS 0
x_26_DG_LG 1
x_26_DG_DM 1
x_26_DG_BF 1
x_26_DG_BU 1
x_26_DG_KM 1
x_26_DG_KS 1
x_26_LG_DM 0
x_26_LG_BF 1
x_26_LG_BU 1
x_26_LG_KM 1
x_26_LG_KS 1
x_26_DM_BF 1
x_26_DM_BU 1
x_26_DM_KM 1
x_26_DM_KS 1
x_26_BF_BU 1
x_26_BF_KM 1
x_26_BF_KS 0
x_26_BU_KM 1
x_26_BU_KS 0
x_26_KM_KS 0
x_27_DG_LG 1
x_27_DG_DM 1
x_27_DG_BU 1
x_27_DG_KM 1
x_27_DG_KS 1
x_27_LG_DM 0
x_27_LG_BU 1
x_27_LG_KM 1
x_27_LG_KS 1
x_27_DM_BU 1
x_27_DM_KM 1
x_27_DM_KS 1
x_27_BU_KM 1
x_27_BU_KS 0
x_27_KM_KS 0
x_28_DG_LG 1
x_28_DG_DM 1
x_28_DG_BU 1
x_28_DG_KM 1
x_28_DG_KS 1
x_28_LG_DM 0
x_28_LG_BU 1
x_28_LG_KM 1
x_28_LG_KS 1
x_28_DM_BU 1
x_28_DM_KM 1
x_28_DM_KS 1
x_28_BU_KM 1
x_28_BU_KS 0
x_28_KM_KS 0
x_29_DG_LG 1
x_29_DG_DM 1
x_29_DG_BU 1
x_29_DG_KM 1
x_29_DG_KS 1
x_29_LG_DM 0
x_29_LG_BU 1
x_29_LG_KM 1
x_29_LG_KS 1
x_29_DM_BU 1
x_29_DM_KM 1
x_29_DM_KS 1
x_29_BU_KM 1
x_29_BU_KS 0
x_29_KM_KS 0
x_30_DG_LG 1
x_30_DG_DM 1
x_30_DG_BU 1
x_30_DG_KM 1
x_30_DG_KS 1
x_30_LG_DM 0
x_30_LG_BU 1
x_30_LG_KM 1
x_30_LG_KS 1
x_30_DM_BU 1
x_30_DM_KM 1
x_30_DM_KS 1
x_30_BU_KM 1
x_30_BU_KS 0
x_30_KM_KS 0
x_31_DG_LG 1
x_31_DG_DM 1
x_31_DG_BU 1
x_31_DG_KM 1
x_31_DG_KS 1
x_31_LG_DM 0
x_31_LG_BU 1
x_31_LG_KM 1
x_31_LG_KS 1
x_31_DM_BU 1
x_31_DM_KM 1
x_31_DM_KS 1
x_31_BU_KM 1
x_31_BU_KS 1
x_31_KM_KS 0
x_32_DG_LG 1
x_32_DG_DM 1
x_32_DG_BU 1
x_32_DG_KM 1
x_32_DG_KS 1
x_32_LG_DM 0
x_32_LG_BU 1
x_32_LG_KM 1
x_32_LG_KS 1
x_32_DM_BU 1
x_32_DM_KM 1
x_32_DM_KS 1
x_32_BU_KM 1
x_32_BU_KS 1
x_32_KM_KS 0
x_33_DG_LG 1
x_33_DG_DM 1
x_33_DG_BU 1
x_33_DG_KM 1
x_33_DG_KS 1
x_33_LG_DM 0
x_33_LG_BU 1
x_33_LG_KM 1
x_33_LG_KS 1
x_33_DM_BU 1
x_33_DM_KM 1
x_33_DM_KS 1
x_33_BU_KM 1
x_33_BU_KS 1
x_33_KM_KS 0
x_34_DG_LG 1
x_34_DG_DM 1
x_34_DG_BU 1
x_34_DG_KM 1
x_34_DG_KS 1
x_34_LG_DM 0
x_34_LG_BU 1
x_34_LG_KM 1
x_34_LG_KS 1
x_34_DM_BU 1
x_34_DM_KM 1
x_34_DM_KS 1
x_34_BU_KM 1
x_34_BU_KS 1
x_34_KM_KS 0
x_35_DG_LG 1
x_35_DG_DM 1
x_35_DG_BU 1
x_35_DG_KM 1
x_35_DG_KS 1
x_35_LG_DM 0
x_35_LG_BU 1
x_35_LG_KM 1
x_35_LG_KS 1
x_35_DM_BU 1
x_35_DM_KM 1
x_35_DM_KS 1
x_35_BU_KM 1
x_35_BU_KS 1
x_35_KM_KS 0
x_36_DG_LG 1
x_36_DG_DM 1
x_36_DG_BU 1
x_36_DG_KM 1
x_36_DG_KS 1
x_36_LG_DM 0
x_36_LG_BU 0
x_36_LG_KM 0
x_36_LG_KS 1
x_36_DM_BU 1
x_36_DM_KM 1
x_36_DM_KS 1
x_36_BU_KM 0
x_36_BU_KS 1
x_36_KM_KS 1
x_37_DG_LG 1
x_37_DG_DM 1
x_37_DG_BU 1
x_37_DG_KS 1
x_37_LG_DM 0
x_37_LG_BU 0
x_37_LG_KS 1
x_37_DM_BU 1
x_37_DM_KS 1
x_37_BU_KS 1
x_38_LG_DM 0
x_38_LG_KS 1
x_38_DM_KS 1
x_39_LG_DM 0
x_39_LG_KS 1
x_39_DM_KS 1
x_40_LG_KS 1
x_0_LG_DG 0
x_1_LG_DG 0
x_2_LG_DG 0
x_3_LG_DG 0
x_4_LG_DG 0
x_5_LG_DG 0
x_5_DM_DG 1
x_5_DM_LG 1
x_6_LG_DG 0
x_6_DM_DG 1
x_6_DM_LG 1
x_7_LG_DG 0
x_7_DM_DG 1
x_7_EP_DG 0
x_7_MP_DG 0
x_7_DM_LG 1
x_7_EP_LG 0
x_7_MP_LG 0
x_7_EP_DM 0
x_7_MP_DM 0
x_7_MP_EP 0
x_8_LG_DG 0
x_8_DM_DG 1
x_8_EP_DG 0
x_8_MP_DG 0
x_8_DM_LG 1
x_8_EP_LG 0
x_8_MP_LG 0
x_8_EP_DM 0
x_8_MP_DM 0
x_8_MP_EP 0
x_9_LG_DG 0
x_9_DM_DG 1
x_9_EP_DG 0
x_9_MP_DG 0
x_9_DM_LG 1
x_9_EP_LG 0
x_9_MP_LG 0
x_9_EP_DM 0
x_9_MP_DM 0
x_9_MP_EP 0
x_10_LG_DG 0
x_10_DM_DG 1
x_10_EP_DG 0
x_10_MP_DG 0
x_10_DM_LG 1
x_10_EP_LG 0
x_10_MP_LG 0
x_10_EP_DM 0
x_10_MP_DM 0
x_10_MP_EP 0
x_11_LG_DG 0
x_11_DM_DG 1
x_11_EP_DG 0
x_11_MP_DG 0
x_11_BF_DG 0
x_11_DM_LG 1
x_11_EP_LG 0
x_11_MP_LG 0
x_11_BF_LG 0
x_11_EP_DM 0
x_11_MP_DM 0
x_11_BF_DM 0
x_11_MP_EP 0
x_11_BF_EP 0
x_11_BF_MP 0
x_12_LG_DG 0
x_12_DM_DG 1
x_12_EP_DG 0
x_12_MP_DG 0
x_12_BF_DG 0
x_12_DM_LG 1
x_12_EP_LG 0
x_12_MP_LG 0
x_12_BF_LG 0
x_12_EP_DM 0
x_12_MP_DM 0
x_12_BF_DM 0
x_12_MP_EP 0
x_12_BF_EP 0
x_12_BF_MP 0
x_13_LG_DG 0
x_13_DM_DG 1
x_13_EP_DG 0
x_13_MP_DG 0
x_13_BF_DG 0
x_13_DM_LG 1
x_13_EP_LG 0
x_13_MP_LG 0
x_13_BF_LG 0
x_13_EP_DM 0
x_13_MP_DM 0
x_13_BF_DM 0
x_13_MP_EP 0
x_13_BF_EP 0
x_13_BF_MP 0
x_14_LG_DG 0
x_14_DM_DG 0
x_14_EP_DG 0
x_14_MP_DG 0
x_14_BF_DG 0
x_14_BU_DG 0
x_14_DM_LG 1
x_14_EP_LG 0
x_14_MP_LG 0
x_14_BF_LG 0
x_14_BU_LG 0
x_14_EP_DM 0
x_14_MP_DM 0
x_14_BF_DM 0
x_14_BU_DM 0
x_14_MP_EP 0
x_14_BF_EP 0
x_14_BU_EP 0
x_14_BF_MP 0
x_14_BU_MP 0
x_14_BU_BF 0
x_15_LG_DG 0
x_15_DM_DG 0
x_15_EP_DG 0
x_15_MP_DG 0
x_15_BF_DG 0
x_15_BU_DG 0
x_15_DM_LG 1
x_15_EP_LG 0
x_15_MP_LG 0
x_15_BF_LG 0
x_15_BU_LG 0
x_15_EP_DM 0
x_15_MP_DM 0
x_15_BF_DM 0
x_15_BU_DM 0
x_15_MP_EP 0
x_15_BF_EP 0
x_15_BU_EP 0
x_15_BF_MP 0
x_15_BU_MP 0
x_15_BU_BF 0
x_16_LG_DG 0
x_16_DM_DG 0
x_16_EP_DG 0
x_16_MP_DG 0
x_16_BF_DG 0
x_16_BU_DG 0
x_16_DM_LG 1
x_16_EP_LG 0
x_16_MP_LG 0
x_16_BF_LG 0
x_16_BU_LG 0
x_16_EP_DM 0
x_16_MP_DM 0
x_16_BF_DM 0
x_16_BU_DM 0
x_16_MP_EP 0
x_16_BF_EP 0
x_16_BU_EP 0
x_16_BF_MP 0
x_16_BU_MP 0
x_16_BU_BF 0
x_17_LG_DG 0
x_17_DM_DG 0
x_17_EP_DG 0
x_17_MP_DG 0
x_17_BF_DG 0
x_17_BU_DG 0
x_17_DM_LG 1
x_17_EP_LG 0
x_17_MP_LG 0
x_17_BF_LG 0
x_17_BU_LG 0
x_17_EP_DM 0
x_17_MP_DM 0
x_17_BF_DM 0
x_17_BU_DM 0
x_17_MP_EP 0
x_17_BF_EP 0
x_17_BU_EP 0
x_17_BF_MP 0
x_17_BU_MP 0
x_17_BU_BF 0
x_18_LG_DG 0
x_18_DM_DG 0
x_18_EP_DG 0
x_18_MP_DG 0
x_18_BF_DG 0
x_18_BU_DG 0
x_18_DM_LG 1
x_18_EP_LG 0
x_18_MP_LG 0
x_18_BF_LG 0
x_18_BU_LG 0
x_18_EP_DM 0
x_18_MP_DM 0
x_18_BF_DM 0
x_18_BU_DM 0
x_18_MP_EP 0
x_18_BF_EP 0
x_18_BU_EP 0
x_18_BF_MP 0
x_18_BU_MP 0
x_18_BU_BF 0
x_19_LG_DG 0
x_19_DM_DG 0
x_19_EP_DG 0
x_19_MP_DG 0
x_19_BF_DG 0
x_19_BU_DG 0
x_19_KM_DG 0
x_19_DM_LG 1
x_19_EP_LG 0
x_19_MP_LG 0
x_19_BF_LG 0
x_19_BU_LG 0
x_19_KM_LG 0
x_19_EP_DM 0
x_19_MP_DM 0
x_19_BF_DM 0
x_19_BU_DM 0
x_19_KM_DM 0
x_19_MP_EP 1
x_19_BF_EP 0
x_19_BU_EP 0
x_19_KM_EP 0
x_19_BF_MP 0
x_19_BU_MP 0
x_19_KM_MP 0
x_19_BU_BF 0
x_19_KM_BF 0
x_19_KM_BU 0
x_20_LG_DG 0
x_20_DM_DG 0
x_20_EP_DG 0
x_20_MP_DG 0
x_20_BF_DG 0
x_20_BU_DG 0
x_20_KM_DG 0
x_20_DM_LG 1
x_20_EP_LG 0
x_20_MP_LG 0
x_20_BF_LG 0
x_20_BU_LG 0
x_20_KM_LG 0
x_20_EP_DM 0
x_20_MP_DM 0
x_20_BF_DM 0
x_20_BU_DM 0
x_20_KM_DM 0
x_20_MP_EP 1
x_20_BF_EP 0
x_20_BU_EP 0
x_20_KM_EP 0
x_20_BF_MP 0
x_20_BU_MP 0
x_20_KM_MP 0
x_20_BU_BF 0
x_20_KM_BF 0
x_20_KM_BU 0
x_21_LG_DG 0
x_21_DM_DG 0
x_21_EP_DG 0
x_21_MP_DG 0
x_21_BF_DG 0
x_21_BU_DG 0
x_21_KM_DG 0
x_21_DM_LG 1
x_21_EP_LG 0
x_21_MP_LG 0
x_21_BF_LG 0
x_21_BU_LG 0
x_21_KM_LG 0
x_21_EP_DM 0
x_21_MP_DM 0
x_21_BF_DM 0
x_21_BU_DM 0
x_21_KM_DM 0
x_21_MP_EP 1
x_21_BF_EP 0
x_21_BU_EP 0
x_21_KM_EP 0
x_21_BF_MP 0
x_21_BU_MP 0
x_21_KM_MP 0
x_21_BU_BF 0
x_21_KM_BF 0
x_21_KM_BU 0
x_22_LG_DG 0
x_22_DM_DG 0
x_22_EP_DG 0
x_22_MP_DG 0
x_22_BF_DG 0
x_22_BU_DG 0
x_22_KM_DG 0
x_22_DM_LG 1
x_22_EP_LG 0
x_22_MP_LG 0
x_22_BF_LG 0
x_22_BU_LG 0
x_22_KM_LG 0
x_22_EP_DM 0
x_22_MP_DM 0
x_22_BF_DM 0
x_22_BU_DM 0
x_22_KM_DM 0
x_22_MP_EP 1
x_22_BF_EP 0
x_22_BU_EP 0
x_22_KM_EP 0
x_22_BF_MP 0
x_22_BU_MP 0
x_22_KM_MP 0
x_22_BU_BF 0
x_22_KM_BF 0
x_22_KM_BU 0
x_23_LG_DG 0
x_23_DM_DG 0
x_23_MP_DG 0
x_23_BF_DG 0
x_23_BU_DG 0
x_23_KM_DG 0
x_23_KS_DG 0
x_23_DM_LG 1
x_23_MP_LG 0
x_23_BF_LG 0
x_23_BU_LG 0
x_23_KM_LG 0
x_23_KS_LG 0
x_23_MP_DM 0
x_23_BF_DM 0
x_23_BU_DM 0
x_23_KM_DM 0
x_23_KS_DM 0
x_23_BF_MP 0
x_23_BU_MP 0
x_23_KM_MP 0
x_23_MP_KS 0
x_23_KS_MP 1
x_23_BU_BF 0
x_23_KM_BF 0
x_23_KS_BF 1
x_23_KM_BU 0
x_23_KS_BU 1
x_23_KS_KM 1
x_24_LG_DG 0
x_24_DM_DG 0
x_24_BF_DG 0
x_24_BU_DG 0
x_24_KM_DG 0
x_24_KS_DG 0
x_24_DM_LG 1
x_24_BF_LG 0
x_24_BU_LG 0
x_24_KM_LG 0
x_24_KS_LG 0
x_24_BF_DM 0
x_24_BU_DM 0
x_24_KM_DM 0
x_24_KS_DM 0
x_24_BU_BF 0
x_24_KM_BF 0
x_24_KS_BF 1
x_24_KM_BU 0
x_24_KS_BU 1
x_24_KS_KM 1
x_25_LG_DG 0
x_25_DM_DG 0
x_25_BF_DG 0
x_25_BU_DG 0
x_25_KM_DG 0
x_25_KS_DG 0
x_25_DM_LG 1
x_25_BF_LG 0
x_25_BU_LG 0
x_25_KM_LG 0
x_25_KS_LG 0
x_25_BF_DM 0
x_25_BU_DM 0
x_25_KM_DM 0
x_25_KS_DM 0
x_25_BU_BF 0
x_25_KM_BF 0
x_25_KS_BF 1
x_25_KM_BU 0
x_25_KS_BU 1
x_25_KS_KM 1
x_26_LG_DG 0
x_26_DM_DG 0
x_26_BF_DG 0
x_26_BU_DG 0
x_26_KM_DG 0
x_26_KS_DG 0
x_26_DM_LG 1
x_26_BF_LG 0
x_26_BU_LG 0
x_26_KM_LG 0
x_26_KS_LG 0
x_26_BF_DM 0
x_26_BU_DM 0
x_26_KM_DM 0
x_26_KS_DM 0
x_26_BU_BF 0
x_26_KM_BF 0
x_26_KS_BF 1
x_26_KM_BU 0
x_26_KS_BU 1
x_26_KS_KM 1
x_27_LG_DG 0
x_27_DM_DG 0
x_27_BU_DG 0
x_27_KM_DG 0
x_27_KS_DG 0
x_27_DM_LG 1
x_27_BU_LG 0
x_27_KM_LG 0
x_27_KS_LG 0
x_27_BU_DM 0
x_27_KM_DM 0
x_27_KS_DM 0
x_27_KM_BU 0
x_27_KS_BU 1
x_27_KS_KM 1
x_28_LG_DG 0
x_28_DM_DG 0
x_28_BU_DG 0
x_28_KM_DG 0
x_28_KS_DG 0
x_28_DM_LG 1
x_28_BU_LG 0
x_28_KM_LG 0
x_28_KS_LG 0
x_28_BU_DM 0
x_28_KM_DM 0
x_28_KS_DM 0
x_28_KM_BU 0
x_28_KS_BU 1
x_28_KS_KM 1
x_29_LG_DG 0
x_29_DM_DG 0
x_29_BU_DG 0
x_29_KM_DG 0
x_29_KS_DG 0
x_29_DM_LG 1
x_29_BU_LG 0
x_29_KM_LG 0
x_29_KS_LG 0
x_29_BU_DM 0
x_29_KM_DM 0
x_29_KS_DM 0
x_29_KM_BU 0
x_29_KS_BU 1
x_29_KS_KM 1
x_30_LG_DG 0
x_30_DM_DG 0
x_30_BU_DG 0
x_30_KM_DG 0
x_30_KS_DG 0
x_30_DM_LG 1
x_30_BU_LG 0
x_30_KM_LG 0
x_30_KS_LG 0
x_30_BU_DM 0
x_30_KM_DM 0
x_30_KS_DM 0
x_30_KM_BU 0
x_30_KS_BU 1
x_30_KS_KM 1
x_31_LG_DG 0
x_31_DM_DG 0
x_31_BU_DG 0
x_31_KM_DG 0
x_31_KS_DG 0
x_31_DM_LG 1
x_31_BU_LG 0
x_31_KM_LG 0
x_31_KS_LG 0
x_31_BU_DM 0
x_31_KM_DM 0
x_31_KS_DM 0
x_31_KM_BU 0
x_31_KS_BU 0
x_31_KS_KM 1
x_32_LG_DG 0
x_32_DM_DG 0
x_32_BU_DG 0
x_32_KM_DG 0
x_32_KS_DG 0
x_32_DM_LG 1
x_32_BU_LG 0
x_32_KM_LG 0
x_32_KS_LG 0
x_32_BU_DM 0
x_32_KM_DM 0
x_32_KS_DM 0
x_32_KM_BU 0
x_32_KS_BU 0
x_32_KS_KM 1
x_33_LG_DG 0
x_33_DM_DG 0
x_33_BU_DG 0
x_33_KM_DG 0
x_33_KS_DG 0
x_33_DM_LG 1
x_33_BU_LG 0
x_33_KM_LG 0
x_33_KS_LG 0
x_33_BU_DM 0
x_33_KM_DM 0
x_33_KS_DM 0
x_33_KM_BU 0
x_33_KS_BU 0
x_33_KS_KM 1
x_34_LG_DG 0
x_34_DM_DG 0
x_34_BU_DG 0
x_34_KM_DG 0
x_34_KS_DG 0
x_34_DM_LG 1
x_34_BU_LG 0
x_34_KM_LG 0
x_34_KS_LG 0
x_34_BU_DM 0
x_34_KM_DM 0
x_34_KS_DM 0
x_34_KM_BU 0
x_34_KS_BU 0
x_34_KS_KM 1
x_35_LG_DG 0
x_35_DM_DG 0
x_35_BU_DG 0
x_35_KM_DG 0
x_35_KS_DG 0
x_35_DM_LG 1
x_35_BU_LG 0
x_35_KM_LG 0
x_35_KS_LG 0
x_35_BU_DM 0
x_35_KM_DM 0
x_35_KS_DM 0
x_35_KM_BU 0
x_35_KS_BU 0
x_35_KS_KM 1
x_36_LG_DG 0
x_36_DM_DG 0
x_36_BU_DG 0
x_36_KM_DG 0
x_36_KS_DG 0
x_36_DM_LG 1
x_36_BU_LG 1
x_36_KM_LG 1
x_36_KS_LG 0
x_36_BU_DM 0
x_36_KM_DM 0
x_36_KS_DM 0
x_36_KM_BU 1
x_36_KS_BU 0
x_36_KS_KM 0
x_37_LG_DG 0
x_37_DM_DG 0
x_37_BU_DG 0
x_37_KS_DG 0
x_37_DM_LG 1
x_37_BU_LG 1
x_37_KS_LG 0
x_37_BU_DM 0
x_37_KS_DM 0
x_37_KS_BU 0
x_38_DM_LG 1
x_38_KS_LG 0
x_38_KS_DM 0
x_39_DM_LG 1
x_39_KS_LG 0
x_39_KS_DM 0
x_40_KS_LG 0
